50
1000 1000
1 695 656
2 693 894
3 681 582
4 678 362
5 675 669
6 661 180
7 651 713
8 641 425
9 629 108
10 627 494
11 595 585
12 583 877
13 571 533
14 482 980
15 469 477
16 467 128
17 462 662
18 459 500
19 444 64
20 421 140
21 421 599
22 414 24
23 411 447
24 404 628
25 403 770
26 402 841
27 398 949
28 392 810
29 376 373
30 361 55
31 355 617
32 344 203
33 327 370
34 307 204
35 307 905
36 296 257
37 291 355
38 270 306
39 269 553
40 246 627
41 236 355
42 214 792
43 205 229
44 198 130
45 195 241
46 157 238
47 152 319
48 149 397
49 136 178
50 107 149
